
<<< setup


<<< generate

CPXPARAM_Simplex_Tolerances_Optimality           0.001
CPXPARAM_Simplex_Tolerances_Feasibility          0.001
CPXPARAM_TimeLimit                               3600
CPXPARAM_Threads                                 8
CPXPARAM_MIP_Tolerances_AbsMIPGap                0.001
CPXPARAM_MIP_Tolerances_MIPGap                   0.001
CPXPARAM_MIP_Tolerances_Integrality              0.001
CPXPARAM_MIP_Display                             4
CPXPARAM_MIP_PolishAfter_Solutions               1
Tried aggregator 2 times.
MIQCP Presolve eliminated 2 rows and 2 columns.
Aggregator did 1 substitutions.
Reduced MIQCP has 70 rows, 198 columns, and 331 nonzeros.
Reduced MIQCP has 0 binaries, 32 generals, 0 SOSs, and 0 indicators.
Reduced MIQCP has 3 quadratic constraints.
Presolve time = 0.00 sec. (0.14 ticks)
MIP emphasis: balance optimality and feasibility.
MIP search method: dynamic search.
Parallel mode: deterministic, using up to 8 threads.
Tried aggregator 1 time.
LP Presolve eliminated 69 rows and 197 columns.
Aggregator did 1 substitutions.
All rows and columns eliminated.
Presolve time = 0.00 sec. (0.05 ticks)
Initializing dual steep norms . . .
Root relaxation solution time = 0.00 sec. (0.09 ticks)

        Nodes                                         Cuts/
   Node  Left     Objective  IInf  Best Integer    Best Bound    ItCnt     Gap

      0     0     4686.5154     0                                   22         
      0     0     4686.5154     0                     Cone: 2       38         
      0     0     4686.5154     0                     Cone: 4       54         
      0     0     4686.5154     0                     Cone: 6       70         
      0     0     4686.5154     1                     Cone: 8       87         
      0     0     4686.5154     0                    Cone: 10      104         
      0     0     4686.5154     2                    Cone: 12      123         
      0     0     6327.1138     2                    Cone: 78      214         
      0     0     6327.1139    27                   Cone: 142      280         
      0     0     6327.1140    30                   Cone: 206      345         
      0     0     6327.1140    31                   Cone: 270      407         
      0     0     6327.1140    32                   Cone: 334      469         
      0     0     6327.1141    32                   Cone: 398      531         
      0     0     6327.1141    32                   Cone: 462      545         
      0     0     6327.1141    32                   Cone: 526      556         
      0     0     6327.1141    32                   Cone: 590      562         
      0     0     6327.1141    32                   Cone: 654      567         
      0     0     6327.1141    32                   Cone: 718      572         
      0     0     6327.1141    32                   Cone: 782      577         
      0     0     6327.1141    32                   Cone: 846      582         
      0     0     6327.1141    32                   Cone: 910      587         
      0     0     6327.1141    32                   Cone: 974      592         
      0     0     6327.1141    32                  Cone: 1038      596         
      0     0     6327.1141    32                   6327.1141      613         
*     0+    0                         6336.0975     6327.1141             0.14%
Found incumbent of value 6336.097454 after 0.06 sec. (25.28 ticks)

Starting condition for polishing reached (PolishAfterIntSol).
Starting solution polishing.

      0     2     6327.1141    32     6336.0975     6327.1141      630    0.14%
Elapsed time = 0.06 sec. (29.75 ticks, tree = 0.01 MB, solutions = 1)
      1     1        cutoff           6336.0975     6327.1141      647    0.14%
                                                    Cone: 185                  
      2     3     6327.2438    31     6336.0975     6327.1141      646    0.14%
      3     3     6327.2447    31     6336.0975     6327.2438      680    0.14%
      4     3     6327.2437    31     6336.0975     6327.2438      680    0.14%
      5     2        cutoff           6336.0975     6327.2438      699    0.14%
      6     3        cutoff           6336.0975     6327.2438      715    0.14%
      7     4     6327.3792    30     6336.0975     6327.2438      699    0.14%
      9     3        cutoff           6336.0975     6327.3783      791    0.14%
     11     4     6327.5190    28     6336.0975     6327.3783      772    0.14%
     13     3        cutoff           6336.0975     6327.5179      868    0.14%
Elapsed time = 28.69 sec. (53694.68 ticks, tree = 0.01 MB, solutions = 2)
     14     2        cutoff           6336.0975     6327.5179      850    0.14%
     17     2        cutoff           6336.0975     6327.5179      924    0.14%
     19     4     6327.8150    26     6336.0975     6327.6599      922    0.13%
     20     5     6327.8140    27     6336.0975     6327.6599      944    0.13%
     21     2        cutoff           6336.0975     6327.6631     1002    0.13%
     23     4     6327.9719    25     6336.0975     6327.8140     1002    0.13%
     24     5     6327.9709    26     6336.0975     6327.8140     1025    0.13%
     25     2        cutoff           6336.0975     6327.8140     1087    0.13%
     26     5     6328.1344    24     6336.0975     6327.9709     1109    0.13%
     29     3        cutoff           6336.0975     6327.9709     1150    0.13%
Elapsed time = 56.17 sec. (102487.96 ticks, tree = 0.01 MB, solutions = 2)
     31     5     6328.3028    24     6336.0975     6328.1339     1152    0.13%
     32     5     6328.3039    24     6336.0975     6328.1339     1195    0.13%
     33     4     6328.3062    23     6336.0975     6328.1339     1254    0.13%
     36     5     6328.4759    23     6336.0975     6328.3028     1278    0.12%
     37     4        cutoff           6336.0975     6328.3028     1299    0.12%
     38     7     6328.4867    22     6336.0975     6328.3028     1357    0.12%
     39     4        cutoff           6336.0975     6328.3028     1338    0.12%
     41     6     6328.4711    22     6336.0975     6328.3028     1336    0.12%
     42     7     6328.4633    22     6336.0975     6328.3028     1355    0.12%
     43     5        cutoff           6336.0975     6328.3028     1398    0.12%
Elapsed time = 77.58 sec. (134282.07 ticks, tree = 0.01 MB, solutions = 2)
     45     7        cutoff           6336.0975     6328.4711     1470    0.12%
     46     7     6328.6723    21     6336.0975     6328.4711     1397    0.12%
     47     5        cutoff           6336.0975     6328.4711     1435    0.12%
     48     7     6328.6694    22     6336.0975     6328.4711     1437    0.12%
     50     9     6328.6488    21     6336.0975     6328.4711     1474    0.12%
     51     5        cutoff           6336.0975     6328.4711     1546    0.12%
     52     7     6328.8661    20     6336.0975     6328.4711     1547    0.12%
     53     6        cutoff           6336.0975     6328.4759     1601    0.12%
     58     9     6328.8425    20     6336.0975     6328.6488     1621    0.12%
     59     7        cutoff           6336.0975     6328.6488     1665    0.12%
Elapsed time = 99.42 sec. (160723.93 ticks, tree = 0.01 MB, solutions = 2)
     60     9     6329.0689    19     6336.0975     6328.6488     1672    0.12%
     63     8     6329.0531    19     6336.0975     6328.6488     1764    0.12%
     65     7        cutoff           6336.0975     6328.8425     1782    0.11%
     67     7        cutoff           6336.0975     6328.8425     1828    0.11%
     70     9     6329.2774    19     6336.0975     6328.8425     1869    0.11%
     72     7        cutoff           6336.0975     6329.0453     1957    0.11%
     74     6        cutoff           6336.0975     6329.0453     2016    0.11%
     76     6        cutoff           6336.0975     6329.0453     2015    0.11%
     79    10     6329.5039    17     6336.0975     6329.0453     2058    0.11%
     80     8        cutoff           6336.0975     6329.0531     2093    0.11%
Elapsed time = 123.08 sec. (189710.30 ticks, tree = 0.01 MB, solutions = 2)
     81    10     6329.4800    17     6336.0975     6329.0531     2092    0.11%
     82     8        cutoff           6336.0975     6329.2575     2132    0.11%
     84     9     6329.5052    17     6336.0975     6329.2575     2187    0.11%
     86     8        cutoff           6336.0975     6329.2575     2215    0.11%
     87    10     6329.7375    16     6336.0975     6329.2575     2212    0.11%
     88    10     6329.7136    16     6336.0975     6329.2812     2249    0.11%
     90     8        cutoff           6336.0975     6329.2812     2290    0.11%
     91    10     6329.9671    15     6336.0975     6329.2812     2287    0.11%
     93    12     6329.7297    16     6336.0975     6329.2812     2326    0.11%
     94    12     6329.9830    15     6336.0975     6329.4800     2367    0.10%
Elapsed time = 141.28 sec. (212235.34 ticks, tree = 0.01 MB, solutions = 2)
     96    13     6329.9591    15     6336.0975     6329.4800     2383    0.10%
     97    11        cutoff           6336.0975     6329.4960     2463    0.10%
     99    13     6329.9845    15     6336.0975     6329.4960     2465    0.10%
    102    15     6330.2413    14     6336.0975     6329.4960     2501    0.10%
    103    13        cutoff           6336.0975     6329.4960     2538    0.10%
    104    12        cutoff           6336.0975     6329.7136     2633    0.10%
    105    13        cutoff           6336.0975     6329.7136     2647    0.10%

Root node processing (before b&c):
  Real time             =    0.06 sec. (25.28 ticks)
Parallel b&c, 8 threads:
  Real time             =  154.27 sec. (233856.47 ticks)
  Sync time (average)   =   52.51 sec.
  Wait time (average)   =    0.00 sec.
                          ------------
Total (root+branch&cut) =  154.33 sec. (233881.76 ticks)

<<< solve


OBJECTIVE: 6336.097
X*: [-3.2171 3.2171 -3.2171 3.2171 -3.2171 3.2171 -3.2171 3.2171 -3.2171 3.2171
     -3.2171 3.2171 -3.2171 3.2171 -3.2171 3.2171 -3.2171 3.2171 -3.2171 3.2171
     -3.2171 3.2171 -3.2171 3.2171 -3.2171 3.2171 -3.2171 3.2171 -3.2171 3.2171
     -3.2171 3.2171] Z*: [-3 3 -3 3 -3 3 -3 3 -3 3 -3 3 -3 3 -3 3 -3 3 -3 3 -3 3 -3 3 -3 3 -3 3 -3 3
     -3 3]
f*:6336.097447463

<<< post process


<<< done

